GeneratedTests/Random_6/Random_6_4.tsp
NAME: Random_6_4
TYPE: TSP
DIMENSION: 6
EDGE_WEIGHT_TYPE: EUC_2D
NODE_COORD_SECTION
1 4.9437876 6.942108
2 16.188143 6.5426116
3 2.7074528 4.3113313
4 4.553569 4.801257
5 5.6182914 11.74746
6 10.728183 16.392296
EOF
