GeneratedTests/Random_6/Random_6_4.txt
NAME: Random_6_4
TYPE: TSP
DIMENSION: 6
EDGE_WEIGHT_TYPE: EUC_2D
NODE_COORD_SECTION
1 1.3306675 12.272845
2 2.4675412 9.941922
3 9.363115 2.3484478
4 6.5809865 8.359455
5 1.2956915 14.79013
6 2.457779 17.588198
EOF
